%
% Real currencies per 2015-11-20 (via Frink)
% Not a good profit:
%   z: 1.00001596269
%   profit: [2.53171435322e-05, 302.11594992346, 1.06477, 122.78993466348]
%   y: [3, 4, 2, 1, 3]
%   starts with 1000.0 JPY -> 1000.01596269 JPY
%   real profit: 1000.01596269 - 1000.0 = 0.01596269000003758 JPY
%
%   JPY -> BTC 2.53171435322e-05
%   BTC -> EUR 302.11594992346
%   EUR -> USD 1.06477
%   USD -> JPY 122.78993466348
%
n = 4;
m = 4;
start = 1000.0;
currencies = array2d(1..n,1..n,
[
0,          0.93916996158794857105,   122.78993466347576556,  0.0031086407779062682633,
1.06477,    0,                        130.74095175414900566,  0.0033099874410912572587,
0.00814412, 0.0076487128675676437165, 0,                      0.000025317143532161997489,
321.684,    302.11594992345764813,    39498.926833101673355,  0,
]);
currencies_s = ["USD","EUR","JPY","BTC"];
